
  32    4
  10   10   10   10

   0   0   0   0   0  14 2 5 6 7 8 9 12 13 14 27 28 29 30 31 
   4   1   1   0   1   4 26 21 18 3 
   4   8   0   1   2   4 23 22 20 4 
   9   3   0   2   6   3 17 16 10 
   8   7   7   0   6   3 20 19 18 
   1   4   0   3   6   2 21 16 
   4   4   0   3   4   2 19 15 
   6   0   4   4   6   2 19 15 
   1   0   5   7   3   2 17 16 
   9   0   6   2   6   1 11 
   6   4   0   5   6   1 15 
   4   0   2   5   5   1 25 
   5   3   4   0   3   1 24 
   8   0   3   5   2   1 18 
   8   1   3   0   2   1 32
   6   4   3   0   2   1 32
   2   9   6   5   0   1 32
   6   4   5   5   0   1 32
   9   5   7   0   6   1 32
   7   5   3   0   3   1 32
   8   5   4   0   4   1 32
   3   2   3   0   5   1 32
   5   6   3   0   2   1 32
   9   4   0   7   4   1 32
   6   4   3   2   0   1 32
   5   3   3   0   2   1 32
   4   2   0   4   8   1 32
   8   5   4   2   0   1 32
   3   2   0   4   3   1 32
   2   3   0   6   3   1 32
   5   2   5   0   4   1 32
   0   0   0   0   0   0 
